array [1..11] of int: X_INTRODUCED_31_ = [1,-8,-2,3,-6,-5,1,7,-3,-9,3];
var 0..100: X_INTRODUCED_0_;
var 0..100: X_INTRODUCED_1_;
var 0..100: X_INTRODUCED_2_;
var 0..100: X_INTRODUCED_3_;
var 0..100: X_INTRODUCED_4_;
var 0..100: X_INTRODUCED_5_;
var 0..100: X_INTRODUCED_6_;
var 0..100: X_INTRODUCED_7_;
var 0..100: X_INTRODUCED_8_;
var 0..100: X_INTRODUCED_9_;
var -1400..3300: x:: output_var:: is_defined_var;
array [1..10] of var int: ys:: output_array([1..10]) = [X_INTRODUCED_0_,X_INTRODUCED_1_,X_INTRODUCED_2_,X_INTRODUCED_3_,X_INTRODUCED_4_,X_INTRODUCED_5_,X_INTRODUCED_6_,X_INTRODUCED_7_,X_INTRODUCED_8_,X_INTRODUCED_9_];
array [1..11] of var int: X_INTRODUCED_30_ ::var_is_introduced  = [x,X_INTRODUCED_0_,X_INTRODUCED_1_,X_INTRODUCED_2_,X_INTRODUCED_3_,X_INTRODUCED_4_,X_INTRODUCED_5_,X_INTRODUCED_6_,X_INTRODUCED_7_,X_INTRODUCED_8_,X_INTRODUCED_9_];
constraint int_lin_eq(X_INTRODUCED_31_,X_INTRODUCED_30_,0):: defines_var(x);
solve  maximize x;
